min: c;

c = 4.02146240686781 * u3_t10_h0 + 3.87486772636217 * u3_t10_h1 + 3.82743988189856 * u3_t4_h2 + 3.82743988189856 * u3_t10_h2 + 2.99090789937186 * u3_t4_h3 + 2.99090789937186 * u3_t10_h3 + 2.87490514726069 * u3_t4_h4 + 2.87490514726069 * u3_t10_h4 + 3.14867927140081 * u3_t4_h5 + 3.14867927140081 * u3_t10_h5 + 4.01199603851974 * u3_t4_h6 + 4.01199603851974 * u3_t10_h6 + 4.2841049057867 * u3_t4_h7 + 4.2841049057867 * u3_t9_h7 + 4.2841049057867 * u3_t10_h7 + 5.25603420354519 * u3_t4_h8 + 5.25603420354519 * u3_t9_h8 + 5.15850277359381 * u3_t4_h9 + 5.15850277359381 * u3_t9_h9 + 5.08633459122471 * u3_t4_h10 + 5.08633459122471 * u3_t6_h10 + 5.08633459122471 * u3_t9_h10 + 4.2491720723628 * u3_t3_h11 + 4.2491720723628 * u3_t4_h11 + 4.2491720723628 * u3_t6_h11 + 4.2491720723628 * u3_t9_h11 + 5.75163218230343 * u3_t3_h12 + 5.75163218230343 * u3_t4_h12 + 5.75163218230343 * u3_t6_h12 + 5.75163218230343 * u3_t9_h12 + 4.59943409338097 * u3_t3_h13 + 4.59943409338097 * u3_t4_h13 + 4.59943409338097 * u3_t5_h13 + 4.59943409338097 * u3_t6_h13 + 4.59943409338097 * u3_t9_h13 + 5.48865583131397 * u3_t3_h14 + 5.48865583131397 * u3_t4_h14 + 5.48865583131397 * u3_t5_h14 + 5.48865583131397 * u3_t6_h14 + 5.48865583131397 * u3_t9_h14 + 6.36973084920262 * u3_t2_h15 + 6.36973084920262 * u3_t3_h15 + 6.36973084920262 * u3_t4_h15 + 6.36973084920262 * u3_t5_h15 + 6.36973084920262 * u3_t6_h15 + 6.36973084920262 * u3_t9_h15 + 5.57317327972904 * u3_t2_h16 + 5.57317327972904 * u3_t4_h16 + 5.57317327972904 * u3_t5_h16 + 5.57317327972904 * u3_t6_h16 + 5.57317327972904 * u3_t9_h16 + 6.6033270618101 * u3_t2_h17 + 6.6033270618101 * u3_t4_h17 + 6.6033270618101 * u3_t6_h17 + 6.6033270618101 * u3_t9_h17 + 6.50219764557237 * u3_t2_h18 + 6.50219764557237 * u3_t6_h18 + 6.50219764557237 * u3_t9_h18 + 5.99224160429987 * u3_t2_h19 + 5.99224160429987 * u3_t9_h19 + 5.41230433115191 * u3_t1_h20 + 5.41230433115191 * u3_t2_h20 + 5.41230433115191 * u3_t8_h20 + 5.41230433115191 * u3_t9_h20 + 4.78940650285268 * u3_t1_h21 + 4.78940650285268 * u3_t2_h21 + 4.78940650285268 * u3_t7_h21 + 4.78940650285268 * u3_t8_h21 + 4.78940650285268 * u3_t9_h21 + 6.02077312268415 * u3_t1_h22 + 6.02077312268415 * u3_t7_h22 + 6.02077312268415 * u3_t8_h22 + 5.52628429035552 * u3_t1_h23 + 5.52628429035552 * u3_t7_h23 + 5.52628429035552 * u3_t8_h23;
0 <= u3_t1_h20 <= 1;
0 <= u3_t1_h21 <= 1;
0 <= u3_t1_h22 <= 1;
0 <= u3_t1_h23 <= 1;
u3_t1_h20 + u3_t1_h21 + u3_t1_h22 + u3_t1_h23 = 2;
0 <= u3_t2_h15 <= 1;
0 <= u3_t2_h16 <= 1;
0 <= u3_t2_h17 <= 1;
0 <= u3_t2_h18 <= 1;
0 <= u3_t2_h19 <= 1;
0 <= u3_t2_h20 <= 1;
0 <= u3_t2_h21 <= 1;
u3_t2_h15 + u3_t2_h16 + u3_t2_h17 + u3_t2_h18 + u3_t2_h19 + u3_t2_h20 + u3_t2_h21 = 3;
0 <= u3_t3_h11 <= 1;
0 <= u3_t3_h12 <= 1;
0 <= u3_t3_h13 <= 1;
0 <= u3_t3_h14 <= 1;
0 <= u3_t3_h15 <= 1;
u3_t3_h11 + u3_t3_h12 + u3_t3_h13 + u3_t3_h14 + u3_t3_h15 = 2;
0 <= u3_t4_h2 <= 1;
0 <= u3_t4_h3 <= 1;
0 <= u3_t4_h4 <= 1;
0 <= u3_t4_h5 <= 1;
0 <= u3_t4_h6 <= 1;
0 <= u3_t4_h7 <= 1;
0 <= u3_t4_h8 <= 1;
0 <= u3_t4_h9 <= 1;
0 <= u3_t4_h10 <= 1;
0 <= u3_t4_h11 <= 1;
0 <= u3_t4_h12 <= 1;
0 <= u3_t4_h13 <= 1;
0 <= u3_t4_h14 <= 1;
0 <= u3_t4_h15 <= 1;
0 <= u3_t4_h16 <= 1;
0 <= u3_t4_h17 <= 1;
u3_t4_h2 + u3_t4_h3 + u3_t4_h4 + u3_t4_h5 + u3_t4_h6 + u3_t4_h7 + u3_t4_h8 + u3_t4_h9 + u3_t4_h10 + u3_t4_h11 + u3_t4_h12 + u3_t4_h13 + u3_t4_h14 + u3_t4_h15 + u3_t4_h16 + u3_t4_h17 = 3;
0 <= u3_t5_h13 <= 1;
0 <= u3_t5_h14 <= 1;
0 <= u3_t5_h15 <= 1;
0 <= u3_t5_h16 <= 1;
u3_t5_h13 + u3_t5_h14 + u3_t5_h15 + u3_t5_h16 = 2;
0 <= u3_t6_h10 <= 1;
0 <= u3_t6_h11 <= 1;
0 <= u3_t6_h12 <= 1;
0 <= u3_t6_h13 <= 1;
0 <= u3_t6_h14 <= 1;
0 <= u3_t6_h15 <= 1;
0 <= u3_t6_h16 <= 1;
0 <= u3_t6_h17 <= 1;
0 <= u3_t6_h18 <= 1;
u3_t6_h10 + u3_t6_h11 + u3_t6_h12 + u3_t6_h13 + u3_t6_h14 + u3_t6_h15 + u3_t6_h16 + u3_t6_h17 + u3_t6_h18 = 2;
0 <= u3_t7_h21 <= 1;
0 <= u3_t7_h22 <= 1;
0 <= u3_t7_h23 <= 1;
u3_t7_h21 + u3_t7_h22 + u3_t7_h23 = 2;
0 <= u3_t8_h20 <= 1;
0 <= u3_t8_h21 <= 1;
0 <= u3_t8_h22 <= 1;
0 <= u3_t8_h23 <= 1;
u3_t8_h20 + u3_t8_h21 + u3_t8_h22 + u3_t8_h23 = 1;
0 <= u3_t9_h7 <= 1;
0 <= u3_t9_h8 <= 1;
0 <= u3_t9_h9 <= 1;
0 <= u3_t9_h10 <= 1;
0 <= u3_t9_h11 <= 1;
0 <= u3_t9_h12 <= 1;
0 <= u3_t9_h13 <= 1;
0 <= u3_t9_h14 <= 1;
0 <= u3_t9_h15 <= 1;
0 <= u3_t9_h16 <= 1;
0 <= u3_t9_h17 <= 1;
0 <= u3_t9_h18 <= 1;
0 <= u3_t9_h19 <= 1;
0 <= u3_t9_h20 <= 1;
0 <= u3_t9_h21 <= 1;
u3_t9_h7 + u3_t9_h8 + u3_t9_h9 + u3_t9_h10 + u3_t9_h11 + u3_t9_h12 + u3_t9_h13 + u3_t9_h14 + u3_t9_h15 + u3_t9_h16 + u3_t9_h17 + u3_t9_h18 + u3_t9_h19 + u3_t9_h20 + u3_t9_h21 = 2;
0 <= u3_t10_h0 <= 1;
0 <= u3_t10_h1 <= 1;
0 <= u3_t10_h2 <= 1;
0 <= u3_t10_h3 <= 1;
0 <= u3_t10_h4 <= 1;
0 <= u3_t10_h5 <= 1;
0 <= u3_t10_h6 <= 1;
0 <= u3_t10_h7 <= 1;
u3_t10_h0 + u3_t10_h1 + u3_t10_h2 + u3_t10_h3 + u3_t10_h4 + u3_t10_h5 + u3_t10_h6 + u3_t10_h7 = 3;
